# Solution for model continuous_k_medians
# Objective value = 25277
x[0,0] 0
x[0,1] 1
x[1,0] 0
x[1,1] 1
x[2,0] 0
x[2,1] 1
x[3,0] 0
x[3,1] 1
x[4,0] 0
x[4,1] 1
x[5,0] 0
x[5,1] 1
x[6,0] 0
x[6,1] 1
x[7,0] 0
x[7,1] 1
x[8,0] 0
x[8,1] 1
x[9,0] 0
x[9,1] 1
x[10,0] 0
x[10,1] 1
x[11,0] 0
x[11,1] 1
x[12,0] 0
x[12,1] 1
x[13,0] 0
x[13,1] 1
x[14,0] 0
x[14,1] 1
x[15,0] 0
x[15,1] 1
x[16,0] 0
x[16,1] 1
x[17,0] 0
x[17,1] 1
x[18,0] 0
x[18,1] 1
x[19,0] 0
x[19,1] 1
x[20,0] 0
x[20,1] 1
x[21,0] 0
x[21,1] 1
x[22,0] 0
x[22,1] 1
x[23,0] 0
x[23,1] 1
x[24,0] 0
x[24,1] 1
x[25,0] 0
x[25,1] 1
x[26,0] 0
x[26,1] 1
x[27,0] 0
x[27,1] 1
x[28,0] 0
x[28,1] 1
x[29,0] 0
x[29,1] 1
x[30,0] 0
x[30,1] 1
x[31,0] 0
x[31,1] 1
x[32,0] 1
x[32,1] 0
x[33,0] 1
x[33,1] 0
x[34,0] 1
x[34,1] 0
x[35,0] 0
x[35,1] 1
x[36,0] 0
x[36,1] 1
x[37,0] 0
x[37,1] 1
x[38,0] 1
x[38,1] 0
x[39,0] 1
x[39,1] 0
x[40,0] 1
x[40,1] 0
x[41,0] 0
x[41,1] 1
x[42,0] 0
x[42,1] 1
x[43,0] 0
x[43,1] 1
x[44,0] 0
x[44,1] 1
x[45,0] 0
x[45,1] 1
x[46,0] 0
x[46,1] 1
x[47,0] 0
x[47,1] 1
x[48,0] 0
x[48,1] 1
x[49,0] 0
x[49,1] 1
x[50,0] 0
x[50,1] 1
x[51,0] 0
x[51,1] 1
x[52,0] 0
x[52,1] 1
x[53,0] 0
x[53,1] 1
x[54,0] 0
x[54,1] 1
x[55,0] 0
x[55,1] 1
x[56,0] 0
x[56,1] 1
x[57,0] 0
x[57,1] 1
x[58,0] 0
x[58,1] 1
x[59,0] 0
x[59,1] 1
x[60,0] 0
x[60,1] 1
x[61,0] 0
x[61,1] 1
x[62,0] 0
x[62,1] 1
x[63,0] 0
x[63,1] 1
x[64,0] 0
x[64,1] 1
x[65,0] 0
x[65,1] 1
x[66,0] 0
x[66,1] 1
x[67,0] 0
x[67,1] 1
x[68,0] 0
x[68,1] 1
x[69,0] 0
x[69,1] 1
x[70,0] 0
x[70,1] 1
x[71,0] 0
x[71,1] 1
x[72,0] 0
x[72,1] 1
x[73,0] 0
x[73,1] 1
x[74,0] 0
x[74,1] 1
x[75,0] 0
x[75,1] 1
x[76,0] 0
x[76,1] 1
x[77,0] 0
x[77,1] 1
x[78,0] 0
x[78,1] 1
x[79,0] 0
x[79,1] 1
x[80,0] 0
x[80,1] 1
x[81,0] 0
x[81,1] 1
x[82,0] 0
x[82,1] 1
x[83,0] 0
x[83,1] 1
x[84,0] 0
x[84,1] 1
x[85,0] 0
x[85,1] 1
x[86,0] 0
x[86,1] 1
x[87,0] 0
x[87,1] 1
x[88,0] 0
x[88,1] 1
x[89,0] 1
x[89,1] 0
x[90,0] 1
x[90,1] 0
x[91,0] 1
x[91,1] 0
x[92,0] 0
x[92,1] 1
x[93,0] 1
x[93,1] 0
x[94,0] 1
x[94,1] 0
x[95,0] 0
x[95,1] 1
x[96,0] 0
x[96,1] 1
x[97,0] 0
x[97,1] 1
x[98,0] 0
x[98,1] 1
x[99,0] 0
x[99,1] 1
x[100,0] 0
x[100,1] 1
x[101,0] 0
x[101,1] 1
x[102,0] 0
x[102,1] 1
x[103,0] 0
x[103,1] 1
x[104,0] 0
x[104,1] 1
x[105,0] 0
x[105,1] 1
x[106,0] 0
x[106,1] 1
x[107,0] 0
x[107,1] 1
x[108,0] 0
x[108,1] 1
x[109,0] 0
x[109,1] 1
x[110,0] 0
x[110,1] 1
x[111,0] 0
x[111,1] 1
x[112,0] 0
x[112,1] 1
x[113,0] 0
x[113,1] 1
x[114,0] 0
x[114,1] 1
x[115,0] 0
x[115,1] 1
x[116,0] 0
x[116,1] 1
x[117,0] 0
x[117,1] 1
x[118,0] 0
x[118,1] 1
x[119,0] 0
x[119,1] 1
x[120,0] 0
x[120,1] 1
x[121,0] 0
x[121,1] 1
x[122,0] 0
x[122,1] 1
x[123,0] 0
x[123,1] 1
x[124,0] 0
x[124,1] 1
x[125,0] 0
x[125,1] 1
x[126,0] 0
x[126,1] 1
x[127,0] 0
x[127,1] 1
x[128,0] 0
x[128,1] 1
x[129,0] 0
x[129,1] 1
x[130,0] 0
x[130,1] 1
x[131,0] 0
x[131,1] 1
x[132,0] 0
x[132,1] 1
x[133,0] 0
x[133,1] 1
x[134,0] 0
x[134,1] 1
x[135,0] 0
x[135,1] 1
x[136,0] 1
x[136,1] 0
x[137,0] 1
x[137,1] 0
x[138,0] 0
x[138,1] 1
x[139,0] 0
x[139,1] 1
x[140,0] 0
x[140,1] 1
x[141,0] 0
x[141,1] 1
x[142,0] 0
x[142,1] 1
x[143,0] 0
x[143,1] 1
x[144,0] 1
x[144,1] 0
x[145,0] 0
x[145,1] 1
x[146,0] 0
x[146,1] 1
x[147,0] 0
x[147,1] 1
x[148,0] 0
x[148,1] 1
x[149,0] 0
x[149,1] 1
x[150,0] 0
x[150,1] 1
x[151,0] 0
x[151,1] 1
x[152,0] 0
x[152,1] 1
x[153,0] 0
x[153,1] 1
x[154,0] 0
x[154,1] 1
x[155,0] 1
x[155,1] 0
x[156,0] 0
x[156,1] 1
x[157,0] 0
x[157,1] 1
x[158,0] 0
x[158,1] 1
x[159,0] 0
x[159,1] 1
x[160,0] 0
x[160,1] 1
x[161,0] 1
x[161,1] 0
x[162,0] 1
x[162,1] 0
x[163,0] 1
x[163,1] 0
x[164,0] 0
x[164,1] 1
x[165,0] 0
x[165,1] 1
x[166,0] 0
x[166,1] 1
x[167,0] 0
x[167,1] 1
x[168,0] 0
x[168,1] 1
x[169,0] 0
x[169,1] 1
x[170,0] 0
x[170,1] 1
x[171,0] 0
x[171,1] 1
x[172,0] 0
x[172,1] 1
x[173,0] 0
x[173,1] 1
x[174,0] 0
x[174,1] 1
x[175,0] 0
x[175,1] 1
x[176,0] 0
x[176,1] 1
x[177,0] 0
x[177,1] 1
x[178,0] 0
x[178,1] 1
x[179,0] 0
x[179,1] 1
x[180,0] 1
x[180,1] 0
x[181,0] 1
x[181,1] 0
x[182,0] 1
x[182,1] 0
x[183,0] 0
x[183,1] 1
x[184,0] 1
x[184,1] 0
x[185,0] 0
x[185,1] 1
x[186,0] 0
x[186,1] 1
x[187,0] 0
x[187,1] 1
x[188,0] 0
x[188,1] 1
x[189,0] 0
x[189,1] 1
x[190,0] 1
x[190,1] 0
x[191,0] 0
x[191,1] 1
x[192,0] 0
x[192,1] 1
x[193,0] 0
x[193,1] 1
x[194,0] 0
x[194,1] 1
x[195,0] 0
x[195,1] 1
x[196,0] 0
x[196,1] 1
x[197,0] 0
x[197,1] 1
x[198,0] 0
x[198,1] 1
x[199,0] 0
x[199,1] 1
x[200,0] 0
x[200,1] 1
x[201,0] 1
x[201,1] 0
x[202,0] 0
x[202,1] 1
x[203,0] 0
x[203,1] 1
x[204,0] 1
x[204,1] 0
x[205,0] 1
x[205,1] 0
x[206,0] 0
x[206,1] 1
x[207,0] 0
x[207,1] 1
x[208,0] 0
x[208,1] 1
x[209,0] 1
x[209,1] 0
x[210,0] 1
x[210,1] 0
x[211,0] 1
x[211,1] 0
x[212,0] 1
x[212,1] 0
x[213,0] 1
x[213,1] 0
x[214,0] 1
x[214,1] 0
x[215,0] 0
x[215,1] 1
x[216,0] 0
x[216,1] 1
x[217,0] 0
x[217,1] 1
x[218,0] 0
x[218,1] 1
x[219,0] 1
x[219,1] 0
x[220,0] 1
x[220,1] 0
x[221,0] 0
x[221,1] 1
x[222,0] 0
x[222,1] 1
x[223,0] 0
x[223,1] 1
x[224,0] 0
x[224,1] 1
x[225,0] 0
x[225,1] 1
x[226,0] 0
x[226,1] 1
x[227,0] 1
x[227,1] 0
x[228,0] 0
x[228,1] 1
x[229,0] 1
x[229,1] 0
x[230,0] 0
x[230,1] 1
x[231,0] 0
x[231,1] 1
x[232,0] 1
x[232,1] 0
x[233,0] 1
x[233,1] 0
x[234,0] 1
x[234,1] 0
x[235,0] 1
x[235,1] 0
x[236,0] 1
x[236,1] 0
x[237,0] 1
x[237,1] 0
x[238,0] 1
x[238,1] 0
x[239,0] 0
x[239,1] 1
x[240,0] 0
x[240,1] 1
x[241,0] 1
x[241,1] 0
x[242,0] 1
x[242,1] 0
x[243,0] 1
x[243,1] 0
x[244,0] 1
x[244,1] 0
x[245,0] 1
x[245,1] 0
x[246,0] 1
x[246,1] 0
x[247,0] 1
x[247,1] 0
x[248,0] 1
x[248,1] 0
x[249,0] 1
x[249,1] 0
x[250,0] 0
x[250,1] 1
x[251,0] 0
x[251,1] 1
x[252,0] 1
x[252,1] 0
x[253,0] 1
x[253,1] 0
x[254,0] 1
x[254,1] 0
x[255,0] 1
x[255,1] 0
x[256,0] 1
x[256,1] 0
x[257,0] 1
x[257,1] 0
x[258,0] 1
x[258,1] 0
x[259,0] 1
x[259,1] 0
x[260,0] 1
x[260,1] 0
x[261,0] 1
x[261,1] 0
x[262,0] 0
x[262,1] 1
x[263,0] 1
x[263,1] 0
x[264,0] 1
x[264,1] 0
x[265,0] 1
x[265,1] 0
x[266,0] 1
x[266,1] 0
x[267,0] 1
x[267,1] 0
x[268,0] 1
x[268,1] 0
x[269,0] 1
x[269,1] 0
x[270,0] 1
x[270,1] 0
x[271,0] 1
x[271,1] 0
x[272,0] 1
x[272,1] 0
x[273,0] 1
x[273,1] 0
x[274,0] 1
x[274,1] 0
x[275,0] 1
x[275,1] 0
x[276,0] 1
x[276,1] 0
x[277,0] 1
x[277,1] 0
x[278,0] 0
x[278,1] 1
x[279,0] 0
x[279,1] 1
x[280,0] 0
x[280,1] 1
x[281,0] 1
x[281,1] 0
x[282,0] 1
x[282,1] 0
x[283,0] 1
x[283,1] 0
x[284,0] 1
x[284,1] 0
x[285,0] 1
x[285,1] 0
x[286,0] 1
x[286,1] 0
x[287,0] 1
x[287,1] 0
x[288,0] 1
x[288,1] 0
x[289,0] 1
x[289,1] 0
x[290,0] 1
x[290,1] 0
x[291,0] 1
x[291,1] 0
x[292,0] 1
x[292,1] 0
x[293,0] 1
x[293,1] 0
x[294,0] 1
x[294,1] 0
x[295,0] 1
x[295,1] 0
x[296,0] 1
x[296,1] 0
x[297,0] 1
x[297,1] 0
x[298,0] 1
x[298,1] 0
x[299,0] 1
x[299,1] 0
x[300,0] 1
x[300,1] 0
x[301,0] 1
x[301,1] 0
x[302,0] 1
x[302,1] 0
x[303,0] 1
x[303,1] 0
x[304,0] 1
x[304,1] 0
x[305,0] 1
x[305,1] 0
x[306,0] 1
x[306,1] 0
x[307,0] 1
x[307,1] 0
x[308,0] 1
x[308,1] 0
x[309,0] 1
x[309,1] 0
x[310,0] 1
x[310,1] 0
x[311,0] 1
x[311,1] 0
x[312,0] 1
x[312,1] 0
x[313,0] 1
x[313,1] 0
x[314,0] 1
x[314,1] 0
x[315,0] 1
x[315,1] 0
x[316,0] 1
x[316,1] 0
x[317,0] 1
x[317,1] 0
x[318,0] 1
x[318,1] 0
x[319,0] 1
x[319,1] 0
x[320,0] 1
x[320,1] 0
x[321,0] 1
x[321,1] 0
x[322,0] 1
x[322,1] 0
x[323,0] 1
x[323,1] 0
x[324,0] 1
x[324,1] 0
x[325,0] 1
x[325,1] 0
x[326,0] 1
x[326,1] 0
x[327,0] 1
x[327,1] 0
x[328,0] 1
x[328,1] 0
x[329,0] 1
x[329,1] 0
x[330,0] 1
x[330,1] 0
x[331,0] 1
x[331,1] 0
x[332,0] 1
x[332,1] 0
x[333,0] 1
x[333,1] 0
x[334,0] 1
x[334,1] 0
x[335,0] 1
x[335,1] 0
x[336,0] 1
x[336,1] 0
x[337,0] 1
x[337,1] 0
x[338,0] 1
x[338,1] 0
x[339,0] 1
x[339,1] 0
x[340,0] 1
x[340,1] 0
x[341,0] 1
x[341,1] 0
x[342,0] 1
x[342,1] 0
x[343,0] 1
x[343,1] 0
x[344,0] 1
x[344,1] 0
x[345,0] 1
x[345,1] 0
x[346,0] 1
x[346,1] 0
x[347,0] 1
x[347,1] 0
x[348,0] 0
x[348,1] 1
x[349,0] 0
x[349,1] 1
x[350,0] 0
x[350,1] 1
x[351,0] 0
x[351,1] 1
x[352,0] 0
x[352,1] 1
x[353,0] 0
x[353,1] 1
x[354,0] 0
x[354,1] 1
x[355,0] 0
x[355,1] 1
x[356,0] 0
x[356,1] 1
x[357,0] 0
x[357,1] 1
x[358,0] 0
x[358,1] 1
x[359,0] 0
x[359,1] 1
x[360,0] 0
x[360,1] 1
x[361,0] 0
x[361,1] 1
x[362,0] 0
x[362,1] 1
x[363,0] 0
x[363,1] 1
x[364,0] 0
x[364,1] 1
x[365,0] 0
x[365,1] 1
x[366,0] 0
x[366,1] 1
x[367,0] 0
x[367,1] 1
x[368,0] 0
x[368,1] 1
x[369,0] 0
x[369,1] 1
x[370,0] 0
x[370,1] 1
x[371,0] 0
x[371,1] 1
x[372,0] 0
x[372,1] 1
x[373,0] 0
x[373,1] 1
x[374,0] 0
x[374,1] 1
x[375,0] 0
x[375,1] 1
x[376,0] 0
x[376,1] 1
x[377,0] 0
x[377,1] 1
x[378,0] 0
x[378,1] 1
x[379,0] 0
x[379,1] 1
x[380,0] 0
x[380,1] 1
x[381,0] 0
x[381,1] 1
x[382,0] 0
x[382,1] 1
x[383,0] 0
x[383,1] 1
x[384,0] 0
x[384,1] 1
x[385,0] 0
x[385,1] 1
x[386,0] 0
x[386,1] 1
x[387,0] 0
x[387,1] 1
x[388,0] 0
x[388,1] 1
x[389,0] 0
x[389,1] 1
x[390,0] 0
x[390,1] 1
x[391,0] 0
x[391,1] 1
x[392,0] 0
x[392,1] 1
x[393,0] 0
x[393,1] 1
x[394,0] 0
x[394,1] 1
x[395,0] 0
x[395,1] 1
x[396,0] 0
x[396,1] 1
x[397,0] 0
x[397,1] 1
x[398,0] 0
x[398,1] 1
x[399,0] 0
x[399,1] 1
x[400,0] 0
x[400,1] 1
x[401,0] 0
x[401,1] 1
x[402,0] 0
x[402,1] 1
x[403,0] 0
x[403,1] 1
x[404,0] 0
x[404,1] 1
x[405,0] 0
x[405,1] 1
x[406,0] 0
x[406,1] 1
x[407,0] 0
x[407,1] 1
x[408,0] 0
x[408,1] 1
x[409,0] 1
x[409,1] 0
x[410,0] 0
x[410,1] 1
x[411,0] 0
x[411,1] 1
x[412,0] 0
x[412,1] 1
x[413,0] 0
x[413,1] 1
x[414,0] 1
x[414,1] 0
x[415,0] 1
x[415,1] 0
x[416,0] 1
x[416,1] 0
x[417,0] 1
x[417,1] 0
x[418,0] 0
x[418,1] 1
x[419,0] 0
x[419,1] 1
x[420,0] 0
x[420,1] 1
x[421,0] 1
x[421,1] 0
x[422,0] 0
x[422,1] 1
x[423,0] 1
x[423,1] 0
x[424,0] 0
x[424,1] 1
x[425,0] 1
x[425,1] 0
x[426,0] 1
x[426,1] 0
x[427,0] 1
x[427,1] 0
x[428,0] 1
x[428,1] 0
x[429,0] 1
x[429,1] 0
x[430,0] 1
x[430,1] 0
x[431,0] 1
x[431,1] 0
x[432,0] 0
x[432,1] 1
x[433,0] 1
x[433,1] 0
x[434,0] 1
x[434,1] 0
x[435,0] 1
x[435,1] 0
x[436,0] 1
x[436,1] 0
x[437,0] 1
x[437,1] 0
x[438,0] 1
x[438,1] 0
x[439,0] 1
x[439,1] 0
x[440,0] 1
x[440,1] 0
x[441,0] 1
x[441,1] 0
x[442,0] 1
x[442,1] 0
x[443,0] 1
x[443,1] 0
x[444,0] 1
x[444,1] 0
x[445,0] 1
x[445,1] 0
x[446,0] 1
x[446,1] 0
x[447,0] 1
x[447,1] 0
x[448,0] 1
x[448,1] 0
x[449,0] 1
x[449,1] 0
x[450,0] 1
x[450,1] 0
x[451,0] 1
x[451,1] 0
x[452,0] 1
x[452,1] 0
x[453,0] 1
x[453,1] 0
x[454,0] 1
x[454,1] 0
x[455,0] 1
x[455,1] 0
x[456,0] 1
x[456,1] 0
x[457,0] 1
x[457,1] 0
x[458,0] 1
x[458,1] 0
x[459,0] 1
x[459,1] 0
x[460,0] 1
x[460,1] 0
x[461,0] 1
x[461,1] 0
x[462,0] 1
x[462,1] 0
x[463,0] 1
x[463,1] 0
x[464,0] 1
x[464,1] 0
x[465,0] 1
x[465,1] 0
x[466,0] 1
x[466,1] 0
x[467,0] 1
x[467,1] 0
x[468,0] 1
x[468,1] 0
x[469,0] 1
x[469,1] 0
x[470,0] 1
x[470,1] 0
x[471,0] 1
x[471,1] 0
x[472,0] 1
x[472,1] 0
x[473,0] 1
x[473,1] 0
x[474,0] 1
x[474,1] 0
x[475,0] 1
x[475,1] 0
x[476,0] 1
x[476,1] 0
x[477,0] 1
x[477,1] 0
x[478,0] 1
x[478,1] 0
x[479,0] 1
x[479,1] 0
x[480,0] 1
x[480,1] 0
x[481,0] 1
x[481,1] 0
x[482,0] 1
x[482,1] 0
x[483,0] 1
x[483,1] 0
x[484,0] 1
x[484,1] 0
x[485,0] 1
x[485,1] 0
x[486,0] 1
x[486,1] 0
x[487,0] 1
x[487,1] 0
x[488,0] 1
x[488,1] 0
x[489,0] 1
x[489,1] 0
x[490,0] 1
x[490,1] 0
x[491,0] 1
x[491,1] 0
x[492,0] 1
x[492,1] 0
x[493,0] 1
x[493,1] 0
x[494,0] 1
x[494,1] 0
x[495,0] 1
x[495,1] 0
x[496,0] 1
x[496,1] 0
x[497,0] 1
x[497,1] 0
x[498,0] 1
x[498,1] 0
x[499,0] 1
x[499,1] 0
x[500,0] 1
x[500,1] 0
x[501,0] 1
x[501,1] 0
x[502,0] 0
x[502,1] 1
x[503,0] 0
x[503,1] 1
x[504,0] 0
x[504,1] 1
x[505,0] 0
x[505,1] 1
x[506,0] 0
x[506,1] 1
x[507,0] 1
x[507,1] 0
x[508,0] 1
x[508,1] 0
x[509,0] 1
x[509,1] 0
x[510,0] 1
x[510,1] 0
x[511,0] 1
x[511,1] 0
z[0,0,-1] 0
z[0,0,0] 1
z[0,0,1] 0
z[0,1,-1] 0
z[0,1,0] 0
z[0,1,1] 1
z[1,0,-1] 0
z[1,0,0] 1
z[1,0,1] 0
z[1,1,-1] 0
z[1,1,0] 0
z[1,1,1] 1
z[2,0,-1] 0
z[2,0,0] 1
z[2,0,1] 0
z[2,1,-1] 0
z[2,1,0] 0
z[2,1,1] 1
z[3,0,-1] 1
z[3,0,0] 0
z[3,0,1] 0
z[3,1,-1] 0
z[3,1,0] 0
z[3,1,1] 1
z[4,0,-1] 0
z[4,0,0] 1
z[4,0,1] 0
z[4,1,-1] 0
z[4,1,0] 1
z[4,1,1] 0
z[5,0,-1] 1
z[5,0,0] 0
z[5,0,1] 0
z[5,1,-1] 0
z[5,1,0] 0
z[5,1,1] 1
z[6,0,-1] 0
z[6,0,0] 1
z[6,0,1] 0
z[6,1,-1] 0
z[6,1,0] 0
z[6,1,1] 1
z[7,0,-1] 0
z[7,0,0] 1
z[7,0,1] 0
z[7,1,-1] 0
z[7,1,0] 0
z[7,1,1] 1
z[8,0,-1] 1
z[8,0,0] 0
z[8,0,1] 0
z[8,1,-1] 0
z[8,1,0] 0
z[8,1,1] 1
z[9,0,-1] 0
z[9,0,0] 1
z[9,0,1] 0
z[9,1,-1] 1
z[9,1,0] 0
z[9,1,1] 0
z[10,0,-1] 1
z[10,0,0] 0
z[10,0,1] 0
z[10,1,-1] 0
z[10,1,0] 0
z[10,1,1] 1
z[11,0,-1] 0
z[11,0,0] 1
z[11,0,1] 0
z[11,1,-1] 0
z[11,1,0] 1
z[11,1,1] 0
z[12,0,-1] 1
z[12,0,0] 0
z[12,0,1] 0
z[12,1,-1] 0
z[12,1,0] 1
z[12,1,1] 0
z[13,0,-1] 0
z[13,0,0] 1
z[13,0,1] 0
z[13,1,-1] 1
z[13,1,0] 0
z[13,1,1] 0
z[14,0,-1] 1
z[14,0,0] 0
z[14,0,1] 0
z[14,1,-1] 0
z[14,1,0] 1
z[14,1,1] 0
z[15,0,-1] 1
z[15,0,0] 0
z[15,0,1] 0
z[15,1,-1] 0
z[15,1,0] 1
z[15,1,1] 0
z[16,0,-1] 0
z[16,0,0] 1
z[16,0,1] 0
z[16,1,-1] 1
z[16,1,0] 0
z[16,1,1] 0
z[17,0,-1] 1
z[17,0,0] 0
z[17,0,1] 0
z[17,1,-1] 0
z[17,1,0] 1
z[17,1,1] 0
z[18,0,-1] 0
z[18,0,0] 0
z[18,0,1] 1
z[18,1,-1] 1
z[18,1,0] 0
z[18,1,1] 0
z[19,0,-1] 0
z[19,0,0] 0
z[19,0,1] 1
z[19,1,-1] 0
z[19,1,0] 1
z[19,1,1] 0
z[20,0,-1] 1
z[20,0,0] 0
z[20,0,1] 0
z[20,1,-1] 0
z[20,1,0] 0
z[20,1,1] 1
W[0,0,-1] 89
W[0,0,0] 1024
W[0,0,1] 406
W[0,1,-1] 749
W[0,1,0] 53
W[0,1,1] 1036
W[1,0,-1] 251
W[1,0,0] 937
W[1,0,1] 331
W[1,1,-1] 203
W[1,1,0] 352
W[1,1,1] 1283
W[2,0,-1] 217
W[2,0,0] 983
W[2,0,1] 319
W[2,1,-1] 84
W[2,1,0] 432
W[2,1,1] 1322
W[3,0,-1] 1402
W[3,0,0] 74
W[3,0,1] 43
W[3,1,-1] 38
W[3,1,0] 475
W[3,1,1] 1325
W[4,0,-1] 296
W[4,0,0] 953
W[4,0,1] 270
W[4,1,-1] 607
W[4,1,0] 342
W[4,1,1] 889
W[5,0,-1] 1326
W[5,0,0] 121
W[5,0,1] 72
W[5,1,-1] 24
W[5,1,0] 475
W[5,1,1] 1339
W[6,0,-1] 343
W[6,0,0] 1072
W[6,0,1] 104
W[6,1,-1] 187
W[6,1,0] 668
W[6,1,1] 983
W[7,0,-1] 304
W[7,0,0] 1107
W[7,0,1] 108
W[7,1,-1] 169
W[7,1,0] 657
W[7,1,1] 1012
W[8,0,-1] 1410
W[8,0,0] 79
W[8,0,1] 30
W[8,1,-1] 130
W[8,1,0] 680
W[8,1,1] 1028
W[9,0,-1] 422
W[9,0,0] 996
W[9,0,1] 101
W[9,1,-1] 986
W[9,1,0] 71
W[9,1,1] 781
W[10,0,-1] 1344
W[10,0,0] 135
W[10,0,1] 40
W[10,1,-1] 98
W[10,1,0] 706
W[10,1,1] 1034
W[11,0,-1] 218
W[11,0,0] 1044
W[11,0,1] 257
W[11,1,-1] 223
W[11,1,0] 1191
W[11,1,1] 424
W[12,0,-1] 1414
W[12,0,0] 56
W[12,0,1] 49
W[12,1,-1] 149
W[12,1,0] 1230
W[12,1,1] 459
W[13,0,-1] 356
W[13,0,0] 910
W[13,0,1] 253
W[13,1,-1] 1246
W[13,1,0] 362
W[13,1,1] 230
W[14,0,-1] 1350
W[14,0,0] 108
W[14,0,1] 61
W[14,1,-1] 105
W[14,1,0] 1262
W[14,1,1] 471
W[15,0,-1] 1412
W[15,0,0] 70
W[15,0,1] 37
W[15,1,-1] 151
W[15,1,0] 1347
W[15,1,1] 340
W[16,0,-1] 335
W[16,0,0] 962
W[16,0,1] 222
W[16,1,-1] 1280
W[16,1,0] 445
W[16,1,1] 113
W[17,0,-1] 1352
W[17,0,0] 123
W[17,0,1] 44
W[17,1,-1] 107
W[17,1,0] 1380
W[17,1,1] 351
W[18,0,-1] 44
W[18,0,0] 67
W[18,0,1] 1408
W[18,1,-1] 1300
W[18,1,0] 493
W[18,1,1] 45
W[19,0,-1] 704
W[19,0,0] 31
W[19,0,1] 784
W[19,1,-1] 78
W[19,1,0] 1530
W[19,1,1] 230
W[20,0,-1] 1328
W[20,0,0] 122
W[20,0,1] 69
W[20,1,-1] 26
W[20,1,0] 496
W[20,1,1] 1316
C[0,0] 495
C[0,1] 1551
C[1,0] 582
C[1,1] 758
C[2,0] 536
C[2,1] 600
C[3,0] 160
C[3,1] 551
C[4,0] 566
C[4,1] 1496
C[5,0] 265
C[5,1] 523
C[6,0] 447
C[6,1] 1042
C[7,0] 412
C[7,1] 995
C[8,0] 139
C[8,1] 940
C[9,0] 523
C[9,1] 1633
C[10,0] 215
C[10,1] 902
C[11,0] 475
C[11,1] 647
C[12,0] 154
C[12,1] 608
C[13,0] 609
C[13,1] 822
C[14,0] 230
C[14,1] 576
C[15,0] 144
C[15,1] 491
C[16,0] 557
C[16,1] 671
C[17,0] 211
C[17,1] 458
C[18,0] 155
C[18,1] 583
C[19,0] 1439
C[19,1] 308
C[20,0] 260
C[20,1] 548
